14
0 53 59 42 11 47 33 45 44 45 53 49 19 28 
53 0 16 18 16 26 30 38 56 42 52 51 17 17 
59 16 0 14 18 49 21 22 51 34 13 58 44 33 
42 18 14 0 46 28 25 31 11 43 52 53 41 42 
11 16 18 46 0 38 16 21 16 18 57 49 46 32 
47 26 49 28 38 0 24 10 26 19 48 45 37 22 
33 30 21 25 16 24 0 50 31 21 48 37 36 36 
45 38 22 31 21 10 50 0 29 31 50 25 49 33 
44 56 51 11 16 26 31 29 0 42 51 29 32 17 
45 42 34 43 18 19 21 31 42 0 54 46 35 27 
53 52 13 52 57 48 48 50 51 54 0 36 37 18 
49 51 58 53 49 45 37 25 29 46 36 0 20 45 
19 17 44 41 46 37 36 49 32 35 37 20 0 43 
28 17 33 42 32 22 36 33 17 27 18 45 43 0 
